(set-logic QF_NRA)
(declare-fun skoY () Real)
(declare-fun pi () Real)
(declare-fun skoX () Real)
(assert (and (not (<= (+ (* 7600054456551997440000 (* skoY skoY)) (* (- 2533351485517332480000) (* skoY skoY skoY skoY)) (* 337780198068977664000 (* skoY skoY skoY skoY skoY skoY)) (* (- 24127157004926976000) (* skoY skoY skoY skoY skoY skoY skoY skoY)) (* 1072318089107865600 (* skoY skoY skoY skoY skoY skoY skoY skoY skoY skoY)) (* (- 32494487548723200) (* skoY skoY skoY skoY skoY skoY skoY skoY skoY skoY skoY skoY)) (* 714164561510400 (* skoY skoY skoY skoY skoY skoY skoY skoY skoY skoY skoY skoY skoY skoY)) (* (- 11902016206080) (* skoY skoY skoY skoY skoY skoY skoY skoY skoY skoY skoY skoY skoY skoY skoY skoY)) (* 155225790720 (* skoY skoY skoY skoY skoY skoY skoY skoY skoY skoY skoY skoY skoY skoY skoY skoY skoY skoY)) (* (- 1606340736) (* skoY skoY skoY skoY skoY skoY skoY skoY skoY skoY skoY skoY skoY skoY skoY skoY skoY skoY skoY skoY)) (* 13069056 (* skoY skoY skoY skoY skoY skoY skoY skoY skoY skoY skoY skoY skoY skoY skoY skoY skoY skoY skoY skoY skoY skoY)) (* (- 81172) (* skoY skoY skoY skoY skoY skoY skoY skoY skoY skoY skoY skoY skoY skoY skoY skoY skoY skoY skoY skoY skoY skoY skoY skoY)) (* 364 (* skoY skoY skoY skoY skoY skoY skoY skoY skoY skoY skoY skoY skoY skoY skoY skoY skoY skoY skoY skoY skoY skoY skoY skoY skoY skoY)) (* (- 1) (* skoY skoY skoY skoY skoY skoY skoY skoY skoY skoY skoY skoY skoY skoY skoY skoY skoY skoY skoY skoY skoY skoY skoY skoY skoY skoY skoY skoY))) 0)) (and (not (<= (+ skoY (* (- 1) skoX)) 0)) (and (<= (* (- 10) skoX) (- 1)) (and (not (<= (* (- 10000000) pi) (- 31415927))) (and (not (<= (* 5000000 pi) 15707963)) (<= (+ (* 10 skoY) (* (- 5) pi)) (- 2))))))))
(set-info :status sat)
(check-sat)
